tsp_instances/TSP20/instance92.tsp
NODE_COORD_SECTION
0 93 151
1 55 90
2 138 95
3 175 34
4 70 42
5 176 59
6 178 65
7 96 175
8 194 79
9 2 2
10 60 88
11 127 38
12 106 105
13 199 118
14 108 93
15 52 88
16 128 195
17 28 104
18 127 113
19 71 181
