tsp_instances/TSP20/instance92.opt.tour
TOUR_SECTION
1
19
3
15
13
11
2
16
18
10
5
12
4
6
7
9
14
17
8
20
-1